1421945488945868008508,13,1,2,05,1,1,2,09,7,1,2,02,2,1,2,011,11,1,2,013,2,1,2,014,11,1,2,014,7,1,2,014,4,1,2,015,7,1,2,09,8,1,2,011,1,1,2,05,14,1,2,02,6,1,2,012,1,1,2,05,14,1,2,013,14,1,2,04,13,1,2,014,6,1,2,010,12,1,2,03,13,1,2,013,8,1,2,011,8,1,2,04,10,1,2,013,7,1,2,011,13,1,2,012,12,1,2,07,3,1,2,05,4,1,2,03,7,1,2,015,1,1,2,012,6,1,2,06,15,1,2,012,11,1,2,010,10,1,2,013,10,1,2,03,12,1,2,013,10,1,2,05,11,1,2,03,10,1,2,011,2,1,2,010,6,1,2,03,15,1,2,013,15,1,2,01,2,1,2,04,6,1,2,013,12,1,2,01,4,1,2,02,9,1,2,014,2,1,2,0